
Gurobi 10.0.1 (linux64) logging started Sun Nov 26 15:41:09 2023

Set parameter LogFile to value "ArtificialInstance/ExperimentV2/S2T4K1/BaRo/gurobi91.txt"
Gurobi Optimizer version 10.0.1 build v10.0.1rc0 (linux64)

CPU model: AMD EPYC 7H12 64-Core Processor, instruction set [SSE2|AVX|AVX2]
Thread count: 128 physical cores, 128 logical processors, using up to 32 threads

Academic license 656792 - for non-commercial use only - registered to b.___@student.vu.nl
Optimize a model with 1107 rows, 1681 columns and 5682 nonzeros
Model fingerprint: 0x794f66c6
Variable types: 1 continuous, 1680 integer (1680 binary)
Coefficient statistics:
  Matrix range     [1e+00, 4e+01]
  Objective range  [1e+00, 2e+01]
  Bounds range     [1e+00, 1e+00]
  RHS range        [1e+00, 1e+00]
Found heuristic solution: objective 727.4281840
Presolve time: 0.01s
Presolved: 1107 rows, 1681 columns, 5682 nonzeros
Variable types: 1 continuous, 1680 integer (1680 binary)

Root relaxation: objective 3.385926e+01, 1108 iterations, 0.03 seconds (0.02 work units)

    Nodes    |    Current Node    |     Objective Bounds      |     Work
 Expl Unexpl |  Obj  Depth IntInf | Incumbent    BestBd   Gap | It/Node Time

     0     0   33.85926    0  168  727.42818   33.85926  95.3%     -    0s
H    0     0                      95.2004669   33.85926  64.4%     -    0s
H    0     0                      58.3951957   33.85926  42.0%     -    0s
     0     0   39.28155    0  168   58.39520   39.28155  32.7%     -    0s
H    0     0                      56.0929834   40.52942  27.7%     -    0s
H    0     0                      54.0461941   40.52942  25.0%     -    0s
H    0     0                      49.5855657   41.95517  15.4%     -    0s
     0     0   41.95517    0  222   49.58557   41.95517  15.4%     -    0s
     0     0   42.11438    0  223   49.58557   42.11438  15.1%     -    0s
H    0     0                      45.6189692   42.11438  7.68%     -    0s
     0     0   43.23508    0  287   45.61897   43.23508  5.23%     -    0s
     0     0   43.23508    0  166   45.61897   43.23508  5.23%     -    0s
     0     0   43.23508    0  289   45.61897   43.23508  5.23%     -    0s
     0     0   43.23508    0  348   45.61897   43.23508  5.23%     -    0s
     0     0   43.53236    0  203   45.61897   43.53236  4.57%     -    0s
H    0     0                      44.5973114   43.53236  2.39%     -    0s

Cutting planes:
  Gomory: 10
  Clique: 6
  Zero half: 78
  RLT: 28

Explored 1 nodes (5159 simplex iterations) in 0.51 seconds (0.26 work units)
Thread count was 32 (of 128 available processors)

Solution count 8: 44.5973 45.619 49.5856 ... 727.428

Optimal solution found (tolerance 1.00e-04)
Best objective 4.459731142384e+01, best bound 4.459731142384e+01, gap 0.0000%
